id: 1098
name: map06
group: miplib2010
method: 2

Gurobi 7.0.2 (linux64, Matlab) logging started Mon Mar 26 10:14:20 2018


Gurobi 7.0.2 (linux64) logging started Mon Mar 26 10:14:20 2018

Optimize a model with 328818 rows, 164547 columns and 549920 nonzeros
Coefficient statistics:
  Matrix range     [1e+00, 1e+07]
  Objective range  [1e+00, 1e+00]
  Bounds range     [1e+00, 1e+00]
  RHS range        [1e+00, 5e+07]
Presolve removed 291314 rows and 145574 columns
Presolve time: 0.36s
Presolved: 37504 rows, 18973 columns, 81653 nonzeros

Ordering time: 0.28s

Barrier statistics:
 Dense cols : 52
 AA' NZ     : 1.746e+05
 Factor NZ  : 3.137e+06 (roughly 50 MBytes of memory)
 Factor Ops : 2.280e+09 (less than 1 second per iteration)
 Threads    : 4

                  Objective                Residual
Iter       Primal          Dual         Primal    Dual     Compl     Time
   0  -3.43777060e+04 -4.73420168e+04  8.94e+02 4.33e-01  5.07e+01     1s
   1  -3.22378928e+04 -4.82100369e+04  7.33e+02 8.55e-01  4.48e+01     1s
   2  -2.28283441e+04 -5.07290034e+04  5.54e+02 1.76e-01  2.86e+01     1s
   3  -3.27335094e+03 -4.95714609e+04  7.89e+01 7.53e-13  4.61e+00     1s
   4  -9.93867114e+02 -3.28938432e+04  1.43e+01 1.41e-09  9.86e-01     1s
   5  -7.46285480e+02 -2.80484807e+04  7.94e+00 1.08e-09  6.56e-01     1s
   6  -6.57606607e+02 -1.66572388e+04  5.37e+00 5.33e-10  3.78e-01     1s
   7  -4.97587404e+02 -9.09911555e+03  2.56e+00 2.47e-10  1.86e-01     1s
   8  -3.96769503e+02 -3.40677548e+03  1.17e+00 5.99e-11  6.64e-02     1s
   9  -3.33935088e+02 -1.91364147e+03  3.43e-01 2.40e-11  2.78e-02     1s
  10  -3.44676232e+02 -1.04357382e+03  1.37e-01 8.91e-12  1.14e-02     1s
  11  -3.58816962e+02 -8.06516609e+02  8.22e-02 5.37e-12  7.13e-03     1s
  12  -3.65505338e+02 -7.24589722e+02  6.31e-02 4.40e-12  5.65e-03     1s
  13  -3.72637768e+02 -6.51792546e+02  4.42e-02 3.30e-12  4.32e-03     2s
  14  -3.76116459e+02 -6.09529536e+02  3.77e-02 2.80e-12  3.60e-03     2s
  15  -3.81331608e+02 -5.45316918e+02  2.85e-02 1.89e-12  2.53e-03     2s
  16  -3.85164307e+02 -5.26382874e+02  2.40e-02 1.59e-12  2.17e-03     2s
  17  -3.92462693e+02 -5.01025383e+02  1.22e-02 1.27e-12  1.62e-03     2s
  18  -3.94938528e+02 -4.74059783e+02  9.45e-03 9.13e-13  1.18e-03     2s
  19  -3.95484608e+02 -4.69058431e+02  8.85e-03 8.59e-13  1.10e-03     2s
  20  -3.96311748e+02 -4.57553411e+02  8.16e-03 7.23e-13  9.20e-04     2s
  21  -3.98430410e+02 -4.52739118e+02  6.40e-03 6.80e-13  8.10e-04     2s
  22  -4.00368301e+02 -4.43615636e+02  4.92e-03 5.17e-13  6.43e-04     2s
  23  -4.02496553e+02 -4.32183612e+02  2.99e-03 3.46e-13  4.38e-04     2s
  24  -4.03761051e+02 -4.21697013e+02  1.87e-03 1.88e-13  2.65e-04     2s
  25  -4.04708605e+02 -4.17438901e+02  1.11e-03 1.69e-13  1.87e-04     2s
  26  -4.05263624e+02 -4.16616855e+02  6.77e-04 1.26e-13  1.64e-04     2s
  27  -4.05485790e+02 -4.12754550e+02  5.09e-04 9.95e-14  1.06e-04     2s
  28  -4.05556032e+02 -4.12440164e+02  4.57e-04 1.14e-13  9.98e-05     2s
  29  -4.05744928e+02 -4.11850022e+02  3.09e-04 1.01e-13  8.78e-05     2s
  30  -4.05852954e+02 -4.09250383e+02  2.29e-04 1.14e-13  4.93e-05     3s
  31  -4.06012788e+02 -4.08098750e+02  1.09e-04 1.35e-13  3.00e-05     3s
  32  -4.06073766e+02 -4.07402777e+02  6.23e-05 4.97e-14  1.91e-05     3s
  33  -4.06118758e+02 -4.07006024e+02  3.33e-05 6.20e-14  1.27e-05     3s
  34  -4.06134904e+02 -4.06792029e+02  2.44e-05 5.50e-14  9.38e-06     3s
  35  -4.06136811e+02 -4.06730762e+02  2.29e-05 5.08e-14  8.48e-06     3s
  36  -4.06157590e+02 -4.06654633e+02  1.17e-05 6.48e-14  7.04e-06     3s
  37  -4.06165090e+02 -4.06412608e+02  8.16e-06 6.53e-13  3.52e-06     3s
  38  -4.06174009e+02 -4.06229578e+02  3.22e-06 2.51e-12  8.02e-07     3s
  39  -4.06177820e+02 -4.06207408e+02  1.39e-06 5.54e-13  4.24e-07     3s
  40  -4.06179614e+02 -4.06194759e+02  6.67e-07 2.03e-12  2.17e-07     3s
  41  -4.06180086e+02 -4.06183465e+02  4.62e-07 7.97e-12  5.08e-08     3s
  42  -4.06180359e+02 -4.06183268e+02  3.44e-07 1.11e-11  4.33e-08     3s
  43  -4.06181123e+02 -4.06182037e+02  8.52e-09 1.22e-11  1.29e-08     3s
  44  -4.06181161e+02 -4.06181199e+02  8.01e-10 1.52e-10  5.38e-10     3s
  45  -4.06181161e+02 -4.06181199e+02  4.06e-09 2.51e-10  5.38e-10     3s
  46  -4.06181161e+02 -4.06181199e+02  4.06e-09 2.50e-10  5.38e-10     3s
  47  -4.06181161e+02 -4.06181199e+02  6.84e-09 1.11e-12  5.38e-10     4s

Barrier solved model in 47 iterations and 3.54 seconds
Optimal objective -4.06181161e+02

Crossover log...

       0 DPushes remaining with DInf 1.7224000e-12                 4s

    8572 PPushes remaining with PInf 0.0000000e+00                 4s
       0 PPushes remaining with PInf 0.0000000e+00                 4s

  Push phase complete: Pinf 0.0000000e+00, Dinf 4.4442228e-13      4s

Iteration    Objective       Primal Inf.    Dual Inf.      Time
   11957   -4.0618117e+02   0.000000e+00   0.000000e+00      4s
   11957   -4.0618117e+02   0.000000e+00   0.000000e+00      4s

Solved in 11957 iterations and 3.84 seconds
Optimal objective -4.061811727e+02
status: OPTIMAL
